Maximize
F - f1 - f2

Subject to
F - 0y37 - 6y82 - 0y94 - 4y96 - 4y173 - 4y182 - 6y43 - 6y145 - 8y81 - 2y159 - 6y123 - 8y72 - 6y54 - 6y165 - 4y87 - 6y21 - 6y71 - 2y106 - 2y170 - 4y84 = 0
f1 - 0.006952s37 - 0.006952s82 - 0.006952s94 - 0.006952s96 - 0.006952s173 - 0.006952s182 - 0.006952s43 - 0.006952s145 - 0.006952s81 - 0.006952s159 - 0.006952s123 - 0.006952s72 - 0.006952s54 - 0.006952s165 - 0.006952s87 - 0.006952s21 - 0.006952s71 - 0.006952s106 - 0.006952s170 - 0.006952s84  = 0
f2 - 3.11y37 - 2.52y82 - 3.15y94 - 3.40y96 - 3.32y173 - 3.06y182 - 2.07y43 - 2.52y145 - 1.61y81 - 1.43y159 - 1.57y123 - 1.23y72 - 1.28y54 - 1.06y165 - 0.89y87 - 1.01y21 - 1.43y71 - 0.88y106 - 1.40y170 - 1.21y84 = 0

x50x81x1 + x50x159x1 + x50x87x1 + x50x21x1 + x50x71x1 + x50x106x1 + x50x84x1 
<= 2
x119x173x1 + x119x81x1 + x119x159x1 + x119x87x1 + x119x21x1 + x119x71x1 + x119x106x1 + x119x84x1 
<= 1
x100x81x1 + x100x159x1 + x100x87x1 + x100x21x1 + x100x71x1 + x100x106x1 + x100x84x1 
<= 2
x23x81x1 + x23x159x1 + x23x87x1 + x23x21x1 + x23x71x1 + x23x106x1 + x23x84x1 
<= 1
x27x81x1 + x27x159x1 + x27x87x1 + x27x21x1 + x27x71x1 + x27x106x1 + x27x84x1 
<= 1
x117x87x1 + x117x21x1 + x117x71x1 + x117x106x1 + x117x84x1 
<= 1
x131x82x2 + x131x43x2 + x131x123x2 + x131x72x2 + x131x54x2 + x131x165x2 
<= 2
x23x43x2 + x23x123x2 + x23x72x2 + x23x54x2 + x23x165x2 
<= 1
x94x82x2 + x94x43x2 + x94x123x2 + x94x72x2 + x94x54x2 + x94x165x2 
<= 2
x37x123x2 + x37x72x2 + x37x54x2 + x37x165x2 
<= 1
x93x72x2 + x93x54x2 + x93x165x2 
<= 1
x27x123x2 + x27x72x2 + x27x54x2 + x27x165x2 
<= 1
x66x37x3 + x66x82x3 + x66x96x3 + x66x182x3 + x66x145x3 + x66x81x3 + x66x159x3 + x66x72x3 + x66x21x3 + x66x106x3 + x66x170x3 + x66x84x3 
<= 2
x37x159x3 + x37x72x3 + x37x21x3 + x37x106x3 + x37x170x3 + x37x84x3 
<= 1
x93x72x3 + x93x21x3 + x93x106x3 + x93x170x3 + x93x84x3 
<= 1
x117x72x3 + x117x21x3 + x117x106x3 + x117x170x3 + x117x84x3 
<= 1
x135x37x3 + x135x82x3 + x135x96x3 + x135x182x3 + x135x145x3 + x135x81x3 + x135x159x3 + x135x72x3 + x135x21x3 + x135x106x3 + x135x170x3 + x135x84x3 
<= 2
x32x37x3 + x32x82x3 + x32x96x3 + x32x182x3 + x32x145x3 + x32x81x3 + x32x159x3 + x32x72x3 + x32x21x3 + x32x106x3 + x32x170x3 + x32x84x3 
<= 1



- x37x123x2 - x37x72x2 - x37x54x2 - x37x165x2 
= 0
x66x37x3 + x135x37x3 + x32x37x3 
- x37x0x3
- x37x159x3 - x37x72x3 - x37x21x3 - x37x106x3 - x37x170x3 - x37x84x3 
= 0


x131x82x2 + x94x82x2 
- x82x0x2
- x82x123x2 - x82x72x2 - x82x54x2 - x82x165x2 
= 0
x66x82x3 + x135x82x3 + x32x82x3 
- x82x0x3
- x82x145x3 - x82x81x3 - x82x159x3 - x82x72x3 - x82x21x3 - x82x106x3 - x82x170x3 - x82x84x3 
= 0



- x94x123x2 - x94x72x2 - x94x54x2 - x94x165x2 
= 0




x66x96x3 + x135x96x3 + x32x96x3 
- x96x0x3
- x96x72x3 - x96x21x3 - x96x106x3 - x96x170x3 - x96x84x3 
= 0

x119x173x1 
- x173x0x1
- x173x87x1 - x173x21x1 - x173x71x1 - x173x106x1 - x173x84x1 
= 0

- x173x72x2 - x173x54x2 - x173x165x2 
= 0




x66x182x3 + x135x182x3 + x32x182x3 
- x182x0x3
- x182x81x3 - x182x159x3 - x182x72x3 - x182x21x3 - x182x106x3 - x182x170x3 - x182x84x3 
= 0


x131x43x2 + x23x43x2 + x94x43x2 
- x43x0x2
- x43x123x2 - x43x72x2 - x43x54x2 - x43x165x2 
= 0




x66x145x3 + x135x145x3 + x32x145x3 + x82x145x3 
- x145x0x3
- x145x72x3 - x145x21x3 - x145x106x3 - x145x170x3 - x145x84x3 
= 0

x50x81x1 + x119x81x1 + x100x81x1 + x23x81x1 + x27x81x1 
- x81x0x1
- x81x87x1 - x81x21x1 - x81x71x1 - x81x106x1 - x81x84x1 
= 0

x66x81x3 + x135x81x3 + x32x81x3 + x82x81x3 + x182x81x3 
- x81x0x3
- x81x72x3 - x81x21x3 - x81x106x3 - x81x170x3 - x81x84x3 
= 0

x50x159x1 + x119x159x1 + x100x159x1 + x23x159x1 + x27x159x1 
- x159x0x1
- x159x87x1 - x159x21x1 - x159x71x1 - x159x106x1 - x159x84x1 
= 0

x66x159x3 + x37x159x3 + x135x159x3 + x32x159x3 + x37x159x3 + x82x159x3 + x182x159x3 
- x159x0x3
- x159x72x3 - x159x21x3 - x159x106x3 - x159x170x3 - x159x84x3 
= 0


x131x123x2 + x23x123x2 + x94x123x2 + x37x123x2 + x27x123x2 + x37x123x2 + x82x123x2 + x94x123x2 + x43x123x2 
- x123x0x2
- x123x165x2 
= 0



x131x72x2 + x23x72x2 + x94x72x2 + x37x72x2 + x93x72x2 + x27x72x2 + x37x72x2 + x82x72x2 + x94x72x2 + x173x72x2 + x43x72x2 
- x72x0x2
- x72x165x2 
= 0
x66x72x3 + x37x72x3 + x93x72x3 + x117x72x3 + x135x72x3 + x32x72x3 + x37x72x3 + x82x72x3 + x96x72x3 + x182x72x3 + x145x72x3 + x81x72x3 + x159x72x3 
- x72x0x3
- x72x21x3 - x72x106x3 - x72x170x3 - x72x84x3 
= 0


x131x54x2 + x23x54x2 + x94x54x2 + x37x54x2 + x93x54x2 + x27x54x2 + x37x54x2 + x82x54x2 + x94x54x2 + x173x54x2 + x43x54x2 
- x54x0x2

= 0



x131x165x2 + x23x165x2 + x94x165x2 + x37x165x2 + x93x165x2 + x27x165x2 + x37x165x2 + x82x165x2 + x94x165x2 + x173x165x2 + x43x165x2 + x123x165x2 + x72x165x2 
- x165x0x2

= 0


x50x87x1 + x119x87x1 + x100x87x1 + x23x87x1 + x27x87x1 + x117x87x1 + x173x87x1 + x81x87x1 + x159x87x1 
- x87x0x1
- x87x84x1 
= 0



x50x21x1 + x119x21x1 + x100x21x1 + x23x21x1 + x27x21x1 + x117x21x1 + x173x21x1 + x81x21x1 + x159x21x1 
- x21x0x1
- x21x84x1 
= 0

x66x21x3 + x37x21x3 + x93x21x3 + x117x21x3 + x135x21x3 + x32x21x3 + x37x21x3 + x82x21x3 + x96x21x3 + x182x21x3 + x145x21x3 + x81x21x3 + x159x21x3 + x72x21x3 
- x21x0x3
- x21x84x3 
= 0

x50x71x1 + x119x71x1 + x100x71x1 + x23x71x1 + x27x71x1 + x117x71x1 + x173x71x1 + x81x71x1 + x159x71x1 
- x71x0x1
- x71x84x1 
= 0



x50x106x1 + x119x106x1 + x100x106x1 + x23x106x1 + x27x106x1 + x117x106x1 + x173x106x1 + x81x106x1 + x159x106x1 
- x106x0x1
- x106x84x1 
= 0

x66x106x3 + x37x106x3 + x93x106x3 + x117x106x3 + x135x106x3 + x32x106x3 + x37x106x3 + x82x106x3 + x96x106x3 + x182x106x3 + x145x106x3 + x81x106x3 + x159x106x3 + x72x106x3 
- x106x0x3
- x106x84x3 
= 0



x66x170x3 + x37x170x3 + x93x170x3 + x117x170x3 + x135x170x3 + x32x170x3 + x37x170x3 + x82x170x3 + x96x170x3 + x182x170x3 + x145x170x3 + x81x170x3 + x159x170x3 + x72x170x3 
- x170x0x3
- x170x84x3 
= 0

x50x84x1 + x119x84x1 + x100x84x1 + x23x84x1 + x27x84x1 + x117x84x1 + x173x84x1 + x81x84x1 + x159x84x1 + x87x84x1 + x21x84x1 + x71x84x1 + x106x84x1 
- x84x0x1

= 0

x66x84x3 + x37x84x3 + x93x84x3 + x117x84x3 + x135x84x3 + x32x84x3 + x37x84x3 + x82x84x3 + x96x84x3 + x182x84x3 + x145x84x3 + x81x84x3 + x159x84x3 + x72x84x3 + x21x84x3 + x106x84x3 + x170x84x3 
- x84x0x3

= 0

1y37 = 0
1y37 - x66x37x3 - x135x37x3 - x32x37x3 = 0
1y82 - x131x82x2 - x94x82x2 = 0
1y82 - x66x82x3 - x135x82x3 - x32x82x3 = 0
2y94 = 0
2y96 - x66x96x3 - x135x96x3 - x32x96x3 = 0
1y173 - x119x173x1 = 0
1y173 = 0
2y182 - x66x182x3 - x135x182x3 - x32x182x3 = 0
2y43 - x131x43x2 - x23x43x2 - x94x43x2 = 0
2y145 - x66x145x3 - x135x145x3 - x32x145x3 - x82x145x3 = 0
1y81 - x50x81x1 - x119x81x1 - x100x81x1 - x23x81x1 - x27x81x1 = 0
1y81 - x66x81x3 - x135x81x3 - x32x81x3 - x82x81x3 - x182x81x3 = 0
1y159 - x50x159x1 - x119x159x1 - x100x159x1 - x23x159x1 - x27x159x1 = 0
1y159 - x66x159x3 - x37x159x3 - x135x159x3 - x32x159x3 - x37x159x3 - x82x159x3 - x182x159x3 = 0
2y123 - x131x123x2 - x23x123x2 - x94x123x2 - x37x123x2 - x27x123x2 - x37x123x2 - x82x123x2 - x94x123x2 - x43x123x2 = 0
1y72 - x131x72x2 - x23x72x2 - x94x72x2 - x37x72x2 - x93x72x2 - x27x72x2 - x37x72x2 - x82x72x2 - x94x72x2 - x173x72x2 - x43x72x2 = 0
1y72 - x66x72x3 - x37x72x3 - x93x72x3 - x117x72x3 - x135x72x3 - x32x72x3 - x37x72x3 - x82x72x3 - x96x72x3 - x182x72x3 - x145x72x3 - x81x72x3 - x159x72x3 = 0
2y54 - x131x54x2 - x23x54x2 - x94x54x2 - x37x54x2 - x93x54x2 - x27x54x2 - x37x54x2 - x82x54x2 - x94x54x2 - x173x54x2 - x43x54x2 = 0
2y165 - x131x165x2 - x23x165x2 - x94x165x2 - x37x165x2 - x93x165x2 - x27x165x2 - x37x165x2 - x82x165x2 - x94x165x2 - x173x165x2 - x43x165x2 - x123x165x2 - x72x165x2 = 0
2y87 - x50x87x1 - x119x87x1 - x100x87x1 - x23x87x1 - x27x87x1 - x117x87x1 - x173x87x1 - x81x87x1 - x159x87x1 = 0
1y21 - x50x21x1 - x119x21x1 - x100x21x1 - x23x21x1 - x27x21x1 - x117x21x1 - x173x21x1 - x81x21x1 - x159x21x1 = 0
1y21 - x66x21x3 - x37x21x3 - x93x21x3 - x117x21x3 - x135x21x3 - x32x21x3 - x37x21x3 - x82x21x3 - x96x21x3 - x182x21x3 - x145x21x3 - x81x21x3 - x159x21x3 - x72x21x3 = 0
2y71 - x50x71x1 - x119x71x1 - x100x71x1 - x23x71x1 - x27x71x1 - x117x71x1 - x173x71x1 - x81x71x1 - x159x71x1 = 0
1y106 - x50x106x1 - x119x106x1 - x100x106x1 - x23x106x1 - x27x106x1 - x117x106x1 - x173x106x1 - x81x106x1 - x159x106x1 = 0
1y106 - x66x106x3 - x37x106x3 - x93x106x3 - x117x106x3 - x135x106x3 - x32x106x3 - x37x106x3 - x82x106x3 - x96x106x3 - x182x106x3 - x145x106x3 - x81x106x3 - x159x106x3 - x72x106x3 = 0
2y170 - x66x170x3 - x37x170x3 - x93x170x3 - x117x170x3 - x135x170x3 - x32x170x3 - x37x170x3 - x82x170x3 - x96x170x3 - x182x170x3 - x145x170x3 - x81x170x3 - x159x170x3 - x72x170x3 = 0
1y84 - x50x84x1 - x119x84x1 - x100x84x1 - x23x84x1 - x27x84x1 - x117x84x1 - x173x84x1 - x81x84x1 - x159x84x1 - x87x84x1 - x21x84x1 - x71x84x1 - x106x84x1 = 0
1y84 - x66x84x3 - x37x84x3 - x93x84x3 - x117x84x3 - x135x84x3 - x32x84x3 - x37x84x3 - x82x84x3 - x96x84x3 - x182x84x3 - x145x84x3 - x81x84x3 - x159x84x3 - x72x84x3 - x21x84x3 - x106x84x3 - x170x84x3 = 0

s131 - s82 + 6.789066z131z82z2 <= 4.97
s131 - s43 + 6.789039z131z43z2 <= 4.97
s131 - s123 + 6.956066z131z123z2 <= 4.97
s131 - s72 + 6.968817z131z72z2 <= 4.97
s131 - s54 + 6.906956z131z54z2 <= 4.97
s131 - s165 + 7.013218z131z165z2 <= 4.97
s50 - s81 + 6.493888z50z81z1 <= 4.99
s50 - s159 + 6.430412z50z159z1 <= 4.99
s50 - s87 + 6.491981z50z87z1 <= 4.99
s50 - s21 + 6.393423z50z21z1 <= 4.99
s50 - s71 + 6.620383z50z71z1 <= 4.99
s50 - s106 + 6.598024z50z106z1 <= 4.99
s50 - s84 + 6.708764z50z84z1 <= 4.99
s119 - s173 + 6.174094z119z173z1 <= 4.80
s119 - s81 + 6.307781z119z81z1 <= 4.80
s119 - s159 + 6.240738z119z159z1 <= 4.80
s119 - s87 + 6.294811z119z87z1 <= 4.80
s119 - s21 + 6.195704z119z21z1 <= 4.80
s119 - s71 + 6.432609z119z71z1 <= 4.80
s119 - s106 + 6.402747z119z106z1 <= 4.80
s119 - s84 + 6.518844z119z84z1 <= 4.80
s100 - s81 + 6.635156z100z81z1 <= 5.05
s100 - s159 + 6.562916z100z159z1 <= 5.05
s100 - s87 + 6.598622z100z87z1 <= 5.05
s100 - s21 + 6.502458z100z21z1 <= 5.05
s100 - s71 + 6.753807z100z71z1 <= 5.05
s100 - s106 + 6.707876z100z106z1 <= 5.05
s100 - s84 + 6.833925z100z84z1 <= 5.05
s66 - s37 + 6.298783z66z37z3 <= 5.14
s66 - s82 + 6.380688z66z82z3 <= 5.14
s66 - s96 + 6.412266z66z96z3 <= 5.14
s66 - s182 + 6.393651z66z182z3 <= 5.14
s66 - s145 + 6.448575z66z145z3 <= 5.14
s66 - s81 + 6.424571z66z81z3 <= 5.14
s66 - s159 + 6.372888z66z159z3 <= 5.14
s66 - s72 + 6.420635z66z72z3 <= 5.14
s66 - s21 + 6.368548z66z21z3 <= 5.14
s66 - s106 + 6.548784z66z106z3 <= 5.14
s66 - s170 + 6.579964z66z170z3 <= 5.14
s66 - s84 + 6.643198z66z84z3 <= 5.14
s23 - s43 + 6.709598z23z43z2 <= 5.64
s23 - s81 + 6.897854z23z81z1 <= 5.64
s23 - s159 + 6.837306z23z159z1 <= 5.64
s23 - s123 + 6.935476z23z123z2 <= 5.64
s23 - s72 + 6.882968z23z72z2 <= 5.64
s23 - s54 + 6.767142z23z54z2 <= 5.64
s23 - s165 + 6.933039z23z165z2 <= 5.64
s23 - s87 + 6.911340z23z87z1 <= 5.64
s23 - s21 + 6.820487z23z21z1 <= 5.64
s23 - s71 + 7.024697z23z71z1 <= 5.64
s23 - s106 + 7.010777z23z106z1 <= 5.64
s23 - s84 + 7.114097z23z84z1 <= 5.64
s94 - s82 + 6.659153z94z82z2 <= 5.50
s94 - s43 + 6.664645z94z43z2 <= 5.50
s94 - s123 + 6.814288z94z123z2 <= 5.50
s94 - s72 + 6.819967z94z72z2 <= 5.50
s94 - s54 + 6.776202z94z54z2 <= 5.50
s94 - s165 + 6.864646z94z165z2 <= 5.50
s37 - s159 + 7.251159z37z159z3 <= 5.98
s37 - s123 + 7.293990z37z123z2 <= 5.98
s37 - s72 + 7.295975z37z72z2 <= 5.98
s37 - s72 + 7.295975z37z72z3 <= 5.98
s37 - s54 + 7.247006z37z54z2 <= 5.98
s37 - s165 + 7.341571z37z165z2 <= 5.98
s37 - s21 + 7.292279z37z21z3 <= 5.98
s37 - s106 + 7.409476z37z106z3 <= 5.98
s37 - s170 + 7.399015z37z170z3 <= 5.98
s37 - s84 + 7.464509z37z84z3 <= 5.98
s93 - s72 + 7.345498z93z72z2 <= 5.95
s93 - s72 + 7.345498z93z72z3 <= 5.95
s93 - s54 + 7.222188z93z54z2 <= 5.95
s93 - s165 + 7.385033z93z165z2 <= 5.95
s93 - s21 + 7.250282z93z21z3 <= 5.95
s93 - s106 + 7.454448z93z106z3 <= 5.95
s93 - s170 + 7.530371z93z170z3 <= 5.95
s93 - s84 + 7.581832z93z84z3 <= 5.95
s27 - s81 + 7.177851z27z81z1 <= 5.82
s27 - s159 + 7.104040z27z159z1 <= 5.82
s27 - s123 + 7.206769z27z123z2 <= 5.82
s27 - s72 + 7.122000z27z72z2 <= 5.82
s27 - s54 + 7.019066z27z54z2 <= 5.82
s27 - s165 + 7.152557z27z165z2 <= 5.82
s27 - s87 + 7.108348z27z87z1 <= 5.82
s27 - s21 + 7.025676z27z21z1 <= 5.82
s27 - s71 + 7.278117z27z71z1 <= 5.82
s27 - s106 + 7.214005z27z106z1 <= 5.82
s27 - s84 + 7.347160z27z84z1 <= 5.82
s117 - s72 + 7.348101z117z72z3 <= 5.96
s117 - s87 + 7.328782z117z87z1 <= 5.96
s117 - s21 + 7.253409z117z21z1 <= 5.96
s117 - s21 + 7.253409z117z21z3 <= 5.96
s117 - s71 + 7.501438z117z71z1 <= 5.96
s117 - s106 + 7.430130z117z106z1 <= 5.96
s117 - s106 + 7.430130z117z106z3 <= 5.96
s117 - s170 + 7.524820z117z170z3 <= 5.96
s117 - s84 + 7.565347z117z84z1 <= 5.96
s117 - s84 + 7.565347z117z84z3 <= 5.96
s135 - s37 + 6.054686z135z37z3 <= 4.34
s135 - s82 + 6.205084z135z82z3 <= 4.34
s135 - s96 + 6.084142z135z96z3 <= 4.34
s135 - s182 + 6.132423z135z182z3 <= 4.34
s135 - s145 + 6.250432z135z145z3 <= 4.34
s135 - s81 + 6.336658z135z81z3 <= 4.34
s135 - s159 + 6.317696z135z159z3 <= 4.34
s135 - s72 + 6.364931z135z72z3 <= 4.34
s135 - s21 + 6.337680z135z21z3 <= 4.34
s135 - s106 + 6.482500z135z106z3 <= 4.34
s135 - s170 + 6.465202z135z170z3 <= 4.34
s135 - s84 + 6.529338z135z84z3 <= 4.34
s32 - s37 + 5.979887z32z37z3 <= 4.67
s32 - s82 + 6.140055z32z82z3 <= 4.67
s32 - s96 + 6.046448z32z96z3 <= 4.67
s32 - s182 + 6.082212z32z182z3 <= 4.67
s32 - s145 + 6.196775z32z145z3 <= 4.67
s32 - s81 + 6.256969z32z81z3 <= 4.67
s32 - s159 + 6.229802z32z159z3 <= 4.67
s32 - s72 + 6.277857z32z72z3 <= 4.67
s32 - s21 + 6.245002z32z21z3 <= 4.67
s32 - s106 + 6.399885z32z106z3 <= 4.67
s32 - s170 + 6.397286z32z170z3 <= 4.67
s32 - s84 + 6.462831z32z84z3 <= 4.67
s37 - s159 + 7.619650z37z159z3 <= 6.35
s37 - s123 + 7.662481z37z123z2 <= 6.35
s37 - s72 + 7.664466z37z72z2 <= 6.35
s37 - s72 + 7.664466z37z72z3 <= 6.35
s37 - s54 + 7.615498z37z54z2 <= 6.35
s37 - s165 + 7.710062z37z165z2 <= 6.35
s37 - s21 + 7.660769z37z21z3 <= 6.35
s37 - s106 + 7.777966z37z106z3 <= 6.35
s37 - s170 + 7.767506z37z170z3 <= 6.35
s37 - s84 + 7.833000z37z84z3 <= 6.35
s82 - s145 + 7.888638z82z145z3 <= 6.82
s82 - s81 + 7.967573z82z81z3 <= 6.82
s82 - s159 + 7.994483z82z159z3 <= 6.82
s82 - s123 + 7.987863z82z123z2 <= 6.82
s82 - s72 + 8.023524z82z72z2 <= 6.82
s82 - s72 + 8.023524z82z72z3 <= 6.82
s82 - s54 + 8.046764z82z54z2 <= 6.82
s82 - s165 + 8.056456z82z165z2 <= 6.82
s82 - s21 + 8.068014z82z21z3 <= 6.82
s82 - s106 + 8.110440z82z106z3 <= 6.82
s82 - s170 + 8.080341z82z170z3 <= 6.82
s82 - s84 + 8.145099z82z84z3 <= 6.82
s94 - s123 + 7.640197z94z123z2 <= 6.33
s94 - s72 + 7.645876z94z72z2 <= 6.33
s94 - s54 + 7.602111z94z54z2 <= 6.33
s94 - s165 + 7.690555z94z165z2 <= 6.33
s96 - s72 + 7.829934z96z72z3 <= 6.49
s96 - s21 + 7.858782z96z21z3 <= 6.49
s96 - s106 + 7.918848z96z106z3 <= 6.49
s96 - s170 + 7.877183z96z170z3 <= 6.49
s96 - s84 + 7.939097z96z84z3 <= 6.49
s173 - s72 + 7.593585z173z72z2 <= 6.24
s173 - s54 + 7.535898z173z54z2 <= 6.24
s173 - s165 + 7.640055z173z165z2 <= 6.24
s173 - s87 + 7.641995z173z87z1 <= 6.24
s173 - s21 + 7.583641z173z21z1 <= 6.24
s173 - s71 + 7.674306z173z71z1 <= 6.24
s173 - s106 + 7.708994z173z106z1 <= 6.24
s173 - s84 + 7.765145z173z84z1 <= 6.24
s182 - s81 + 7.851900z182z81z3 <= 6.62
s182 - s159 + 7.873421z182z159z3 <= 6.62
s182 - s72 + 7.906279z182z72z3 <= 6.62
s182 - s21 + 7.940555z182z21z3 <= 6.62
s182 - s106 + 7.993928z182z106z3 <= 6.62
s182 - s170 + 7.954996z182z170z3 <= 6.62
s182 - s84 + 8.017883z182z84z3 <= 6.62
s43 - s123 + 8.251569z43z123z2 <= 7.01
s43 - s72 + 8.214505z43z72z2 <= 7.01
s43 - s54 + 8.128134z43z54z2 <= 7.01
s43 - s165 + 8.265169z43z165z2 <= 7.01
s145 - s72 + 8.307665z145z72z3 <= 7.09
s145 - s21 + 8.373628z145z21z3 <= 7.09
s145 - s106 + 8.364874z145z106z3 <= 7.09
s145 - s170 + 8.310000z145z170z3 <= 7.09
s145 - s84 + 8.371267z145z84z3 <= 7.09
s81 - s72 + 8.308638z81z72z3 <= 7.24
s81 - s87 + 8.357945z81z87z1 <= 7.24
s81 - s21 + 8.393478z81z21z1 <= 7.24
s81 - s21 + 8.393478z81z21z3 <= 7.24
s81 - s71 + 8.367367z81z71z1 <= 7.24
s81 - s106 + 8.386666z81z106z1 <= 7.24
s81 - s106 + 8.386666z81z106z3 <= 7.24
s81 - s170 + 8.395635z81z170z3 <= 7.24
s81 - s84 + 8.458683z81z84z1 <= 7.24
s81 - s84 + 8.458683z81z84z3 <= 7.24
s159 - s72 + 8.338534z159z72z3 <= 7.29
s159 - s87 + 8.384281z159z87z1 <= 7.29
s159 - s21 + 8.372462z159z21z1 <= 7.29
s159 - s21 + 8.372462z159z21z3 <= 7.29
s159 - s71 + 8.482296z159z71z1 <= 7.29
s159 - s106 + 8.466005z159z106z1 <= 7.29
s159 - s106 + 8.466005z159z106z3 <= 7.29
s159 - s170 + 8.510101z159z170z3 <= 7.29
s159 - s84 + 8.568488z159z84z1 <= 7.29
s159 - s84 + 8.568488z159z84z3 <= 7.29
s123 - s165 + 8.425375z123z165z2 <= 7.34
s72 - s165 + 8.460772z72z165z2 <= 7.41
s72 - s21 + 8.507068z72z21z3 <= 7.41
s72 - s106 + 8.538236z72z106z3 <= 7.41
s72 - s170 + 8.594872z72z170z3 <= 7.41
s72 - s84 + 8.648700z72z84z3 <= 7.41
s87 - s84 + 8.858979z87z84z1 <= 7.62
s21 - s84 + 8.991595z21z84z1 <= 7.66
s21 - s84 + 8.991595z21z84z3 <= 7.66
s71 - s84 + 8.762616z71z84z1 <= 7.67
s106 - s84 + 8.855973z106z84z1 <= 7.72
s106 - s84 + 8.855973z106z84z3 <= 7.72
s170 - s84 + 8.855659z170z84z3 <= 7.79

x131x82x2 - 1z131z82z2 <= 0
x131x43x2 - 2z131z43z2 <= 0
x131x123x2 - 2z131z123z2 <= 0
x131x72x2 - 1z131z72z2 <= 0
x131x54x2 - 2z131z54z2 <= 0
x131x165x2 - 2z131z165z2 <= 0
x50x81x1 - 1z50z81z1 <= 0
x50x159x1 - 1z50z159z1 <= 0
x50x87x1 - 2z50z87z1 <= 0
x50x21x1 - 1z50z21z1 <= 0
x50x71x1 - 2z50z71z1 <= 0
x50x106x1 - 1z50z106z1 <= 0
x50x84x1 - 1z50z84z1 <= 0
x119x173x1 - 1z119z173z1 <= 0
x119x81x1 - 1z119z81z1 <= 0
x119x159x1 - 1z119z159z1 <= 0
x119x87x1 - 2z119z87z1 <= 0
x119x21x1 - 1z119z21z1 <= 0
x119x71x1 - 2z119z71z1 <= 0
x119x106x1 - 1z119z106z1 <= 0
x119x84x1 - 1z119z84z1 <= 0
x100x81x1 - 1z100z81z1 <= 0
x100x159x1 - 1z100z159z1 <= 0
x100x87x1 - 2z100z87z1 <= 0
x100x21x1 - 1z100z21z1 <= 0
x100x71x1 - 2z100z71z1 <= 0
x100x106x1 - 1z100z106z1 <= 0
x100x84x1 - 1z100z84z1 <= 0
x66x37x3 - 1z66z37z3 <= 0
x66x82x3 - 1z66z82z3 <= 0
x66x96x3 - 2z66z96z3 <= 0
x66x182x3 - 2z66z182z3 <= 0
x66x145x3 - 2z66z145z3 <= 0
x66x81x3 - 1z66z81z3 <= 0
x66x159x3 - 1z66z159z3 <= 0
x66x72x3 - 1z66z72z3 <= 0
x66x21x3 - 1z66z21z3 <= 0
x66x106x3 - 1z66z106z3 <= 0
x66x170x3 - 2z66z170z3 <= 0
x66x84x3 - 1z66z84z3 <= 0
x23x43x2 - 2z23z43z2 <= 0
x23x81x1 - 1z23z81z1 <= 0
x23x159x1 - 1z23z159z1 <= 0
x23x123x2 - 2z23z123z2 <= 0
x23x72x2 - 1z23z72z2 <= 0
x23x54x2 - 2z23z54z2 <= 0
x23x165x2 - 2z23z165z2 <= 0
x23x87x1 - 2z23z87z1 <= 0
x23x21x1 - 1z23z21z1 <= 0
x23x71x1 - 2z23z71z1 <= 0
x23x106x1 - 1z23z106z1 <= 0
x23x84x1 - 1z23z84z1 <= 0
x94x82x2 - 1z94z82z2 <= 0
x94x43x2 - 2z94z43z2 <= 0
x94x123x2 - 2z94z123z2 <= 0
x94x72x2 - 1z94z72z2 <= 0
x94x54x2 - 2z94z54z2 <= 0
x94x165x2 - 2z94z165z2 <= 0
x37x159x3 - 1z37z159z3 <= 0
x37x123x2 - 2z37z123z2 <= 0
x37x72x2 - 1z37z72z2 <= 0
x37x72x3 - 1z37z72z3 <= 0
x37x54x2 - 2z37z54z2 <= 0
x37x165x2 - 2z37z165z2 <= 0
x37x21x3 - 1z37z21z3 <= 0
x37x106x3 - 1z37z106z3 <= 0
x37x170x3 - 2z37z170z3 <= 0
x37x84x3 - 1z37z84z3 <= 0
x93x72x2 - 1z93z72z2 <= 0
x93x72x3 - 1z93z72z3 <= 0
x93x54x2 - 2z93z54z2 <= 0
x93x165x2 - 2z93z165z2 <= 0
x93x21x3 - 1z93z21z3 <= 0
x93x106x3 - 1z93z106z3 <= 0
x93x170x3 - 2z93z170z3 <= 0
x93x84x3 - 1z93z84z3 <= 0
x27x81x1 - 1z27z81z1 <= 0
x27x159x1 - 1z27z159z1 <= 0
x27x123x2 - 2z27z123z2 <= 0
x27x72x2 - 1z27z72z2 <= 0
x27x54x2 - 2z27z54z2 <= 0
x27x165x2 - 2z27z165z2 <= 0
x27x87x1 - 2z27z87z1 <= 0
x27x21x1 - 1z27z21z1 <= 0
x27x71x1 - 2z27z71z1 <= 0
x27x106x1 - 1z27z106z1 <= 0
x27x84x1 - 1z27z84z1 <= 0
x117x72x3 - 1z117z72z3 <= 0
x117x87x1 - 2z117z87z1 <= 0
x117x21x1 - 1z117z21z1 <= 0
x117x21x3 - 1z117z21z3 <= 0
x117x71x1 - 2z117z71z1 <= 0
x117x106x1 - 1z117z106z1 <= 0
x117x106x3 - 1z117z106z3 <= 0
x117x170x3 - 2z117z170z3 <= 0
x117x84x1 - 1z117z84z1 <= 0
x117x84x3 - 1z117z84z3 <= 0
x135x37x3 - 1z135z37z3 <= 0
x135x82x3 - 1z135z82z3 <= 0
x135x96x3 - 2z135z96z3 <= 0
x135x182x3 - 2z135z182z3 <= 0
x135x145x3 - 2z135z145z3 <= 0
x135x81x3 - 1z135z81z3 <= 0
x135x159x3 - 1z135z159z3 <= 0
x135x72x3 - 1z135z72z3 <= 0
x135x21x3 - 1z135z21z3 <= 0
x135x106x3 - 1z135z106z3 <= 0
x135x170x3 - 2z135z170z3 <= 0
x135x84x3 - 1z135z84z3 <= 0
x32x37x3 - 1z32z37z3 <= 0
x32x82x3 - 1z32z82z3 <= 0
x32x96x3 - 2z32z96z3 <= 0
x32x182x3 - 2z32z182z3 <= 0
x32x145x3 - 2z32z145z3 <= 0
x32x81x3 - 1z32z81z3 <= 0
x32x159x3 - 1z32z159z3 <= 0
x32x72x3 - 1z32z72z3 <= 0
x32x21x3 - 1z32z21z3 <= 0
x32x106x3 - 1z32z106z3 <= 0
x32x170x3 - 2z32z170z3 <= 0
x32x84x3 - 1z32z84z3 <= 0
x37x159x3 - 1z37z159z3 <= 0
x37x123x2 - 2z37z123z2 <= 0
x37x72x2 - 1z37z72z2 <= 0
x37x72x3 - 1z37z72z3 <= 0
x37x54x2 - 2z37z54z2 <= 0
x37x165x2 - 2z37z165z2 <= 0
x37x21x3 - 1z37z21z3 <= 0
x37x106x3 - 1z37z106z3 <= 0
x37x170x3 - 2z37z170z3 <= 0
x37x84x3 - 1z37z84z3 <= 0
x37x0x2 <= 1
x37x0x3 <= 1
x82x145x3 - 2z82z145z3 <= 0
x82x81x3 - 1z82z81z3 <= 0
x82x159x3 - 1z82z159z3 <= 0
x82x123x2 - 2z82z123z2 <= 0
x82x72x2 - 1z82z72z2 <= 0
x82x72x3 - 1z82z72z3 <= 0
x82x54x2 - 2z82z54z2 <= 0
x82x165x2 - 2z82z165z2 <= 0
x82x21x3 - 1z82z21z3 <= 0
x82x106x3 - 1z82z106z3 <= 0
x82x170x3 - 2z82z170z3 <= 0
x82x84x3 - 1z82z84z3 <= 0
x82x0x2 <= 1
x82x0x3 <= 1
x94x123x2 - 2z94z123z2 <= 0
x94x72x2 - 1z94z72z2 <= 0
x94x54x2 - 2z94z54z2 <= 0
x94x165x2 - 2z94z165z2 <= 0
x94x0x2 <= 2
x96x72x3 - 1z96z72z3 <= 0
x96x21x3 - 1z96z21z3 <= 0
x96x106x3 - 1z96z106z3 <= 0
x96x170x3 - 2z96z170z3 <= 0
x96x84x3 - 1z96z84z3 <= 0
x96x0x3 <= 2
x173x72x2 - 1z173z72z2 <= 0
x173x54x2 - 2z173z54z2 <= 0
x173x165x2 - 2z173z165z2 <= 0
x173x87x1 - 2z173z87z1 <= 0
x173x21x1 - 1z173z21z1 <= 0
x173x71x1 - 2z173z71z1 <= 0
x173x106x1 - 1z173z106z1 <= 0
x173x84x1 - 1z173z84z1 <= 0
x173x0x1 <= 1
x173x0x2 <= 1
x182x81x3 - 1z182z81z3 <= 0
x182x159x3 - 1z182z159z3 <= 0
x182x72x3 - 1z182z72z3 <= 0
x182x21x3 - 1z182z21z3 <= 0
x182x106x3 - 1z182z106z3 <= 0
x182x170x3 - 2z182z170z3 <= 0
x182x84x3 - 1z182z84z3 <= 0
x182x0x3 <= 2
x43x123x2 - 2z43z123z2 <= 0
x43x72x2 - 1z43z72z2 <= 0
x43x54x2 - 2z43z54z2 <= 0
x43x165x2 - 2z43z165z2 <= 0
x43x0x2 <= 2
x145x72x3 - 1z145z72z3 <= 0
x145x21x3 - 1z145z21z3 <= 0
x145x106x3 - 1z145z106z3 <= 0
x145x170x3 - 2z145z170z3 <= 0
x145x84x3 - 1z145z84z3 <= 0
x145x0x3 <= 2
x81x72x3 - 1z81z72z3 <= 0
x81x87x1 - 2z81z87z1 <= 0
x81x21x1 - 1z81z21z1 <= 0
x81x21x3 - 1z81z21z3 <= 0
x81x71x1 - 2z81z71z1 <= 0
x81x106x1 - 1z81z106z1 <= 0
x81x106x3 - 1z81z106z3 <= 0
x81x170x3 - 2z81z170z3 <= 0
x81x84x1 - 1z81z84z1 <= 0
x81x84x3 - 1z81z84z3 <= 0
x81x0x1 <= 1
x81x0x3 <= 1
x159x72x3 - 1z159z72z3 <= 0
x159x87x1 - 2z159z87z1 <= 0
x159x21x1 - 1z159z21z1 <= 0
x159x21x3 - 1z159z21z3 <= 0
x159x71x1 - 2z159z71z1 <= 0
x159x106x1 - 1z159z106z1 <= 0
x159x106x3 - 1z159z106z3 <= 0
x159x170x3 - 2z159z170z3 <= 0
x159x84x1 - 1z159z84z1 <= 0
x159x84x3 - 1z159z84z3 <= 0
x159x0x1 <= 1
x159x0x3 <= 1
x123x165x2 - 2z123z165z2 <= 0
x123x0x2 <= 2
x72x165x2 - 2z72z165z2 <= 0
x72x21x3 - 1z72z21z3 <= 0
x72x106x3 - 1z72z106z3 <= 0
x72x170x3 - 2z72z170z3 <= 0
x72x84x3 - 1z72z84z3 <= 0
x72x0x2 <= 1
x72x0x3 <= 1
x54x0x2 <= 2
x165x0x2 <= 2
x87x84x1 - 1z87z84z1 <= 0
x87x0x1 <= 2
x21x84x1 - 1z21z84z1 <= 0
x21x84x3 - 1z21z84z3 <= 0
x21x0x1 <= 1
x21x0x3 <= 1
x71x84x1 - 1z71z84z1 <= 0
x71x0x1 <= 2
x106x84x1 - 1z106z84z1 <= 0
x106x84x3 - 1z106z84z3 <= 0
x106x0x1 <= 1
x106x0x3 <= 1
x170x84x3 - 1z170z84z3 <= 0
x170x0x3 <= 2
x84x0x1 <= 1
x84x0x3 <= 1

Bounds
s131 = 4.969039
s50 = 4.991981
s119 = 4.799276
s100 = 5.053014
s66 = 5.140318
s23 = 5.642598
s94 = 5.504091
s37 = 5.981509
s93 = 5.945943
s27 = 5.817296
s117 = 5.960000
s135 = 4.336880
s32 = 4.671630
6.000000 <= s37 <= 6.350000
6.000000 <= s82 <= 6.820000
6.000000 <= s94 <= 6.330000
6.000000 <= s96 <= 6.490000
6.000000 <= s173 <= 6.240000
6.000000 <= s182 <= 6.620000
6.010000 <= s43 <= 7.010000
6.090000 <= s145 <= 7.090000
6.240000 <= s81 <= 7.240000
6.290000 <= s159 <= 7.290000
6.340000 <= s123 <= 7.340000
6.410000 <= s72 <= 7.410000
6.530000 <= s54 <= 7.530000
6.530000 <= s165 <= 7.530000
6.620000 <= s87 <= 7.620000
6.660000 <= s21 <= 7.660000
6.670000 <= s71 <= 7.670000
6.720000 <= s106 <= 7.720000
6.790000 <= s170 <= 7.790000
7.090000 <= s84 <= 8.090000

General
x131x82x2 x131x43x2 x131x123x2 x131x72x2 x131x54x2 x131x165x2 
x50x81x1 x50x159x1 x50x87x1 x50x21x1 x50x71x1 x50x106x1 x50x84x1 
x119x173x1 x119x81x1 x119x159x1 x119x87x1 x119x21x1 x119x71x1 x119x106x1 x119x84x1 
x100x81x1 x100x159x1 x100x87x1 x100x21x1 x100x71x1 x100x106x1 x100x84x1 
x66x37x3 x66x82x3 x66x96x3 x66x182x3 x66x145x3 x66x81x3 x66x159x3 x66x72x3 x66x21x3 x66x106x3 x66x170x3 x66x84x3 
x23x43x2 x23x81x1 x23x159x1 x23x123x2 x23x72x2 x23x54x2 x23x165x2 x23x87x1 x23x21x1 x23x71x1 x23x106x1 x23x84x1 
x94x82x2 x94x43x2 x94x123x2 x94x72x2 x94x54x2 x94x165x2 
x37x159x3 x37x123x2 x37x72x2 x37x72x3 x37x54x2 x37x165x2 x37x21x3 x37x106x3 x37x170x3 x37x84x3 
x93x72x2 x93x72x3 x93x54x2 x93x165x2 x93x21x3 x93x106x3 x93x170x3 x93x84x3 
x27x81x1 x27x159x1 x27x123x2 x27x72x2 x27x54x2 x27x165x2 x27x87x1 x27x21x1 x27x71x1 x27x106x1 x27x84x1 
x117x72x3 x117x87x1 x117x21x1 x117x21x3 x117x71x1 x117x106x1 x117x106x3 x117x170x3 x117x84x1 x117x84x3 
x135x37x3 x135x82x3 x135x96x3 x135x182x3 x135x145x3 x135x81x3 x135x159x3 x135x72x3 x135x21x3 x135x106x3 x135x170x3 x135x84x3 
x32x37x3 x32x82x3 x32x96x3 x32x182x3 x32x145x3 x32x81x3 x32x159x3 x32x72x3 x32x21x3 x32x106x3 x32x170x3 x32x84x3 
x37x159x3 x37x123x2 x37x72x2 x37x72x3 x37x54x2 x37x165x2 x37x21x3 x37x106x3 x37x170x3 x37x84x3 x37x0x2 x37x0x3 
x82x145x3 x82x81x3 x82x159x3 x82x123x2 x82x72x2 x82x72x3 x82x54x2 x82x165x2 x82x21x3 x82x106x3 x82x170x3 x82x84x3 x82x0x2 x82x0x3 
x94x123x2 x94x72x2 x94x54x2 x94x165x2 x94x0x2 
x96x72x3 x96x21x3 x96x106x3 x96x170x3 x96x84x3 x96x0x3 
x173x72x2 x173x54x2 x173x165x2 x173x87x1 x173x21x1 x173x71x1 x173x106x1 x173x84x1 x173x0x1 x173x0x2 
x182x81x3 x182x159x3 x182x72x3 x182x21x3 x182x106x3 x182x170x3 x182x84x3 x182x0x3 
x43x123x2 x43x72x2 x43x54x2 x43x165x2 x43x0x2 
x145x72x3 x145x21x3 x145x106x3 x145x170x3 x145x84x3 x145x0x3 
x81x72x3 x81x87x1 x81x21x1 x81x21x3 x81x71x1 x81x106x1 x81x106x3 x81x170x3 x81x84x1 x81x84x3 x81x0x1 x81x0x3 
x159x72x3 x159x87x1 x159x21x1 x159x21x3 x159x71x1 x159x106x1 x159x106x3 x159x170x3 x159x84x1 x159x84x3 x159x0x1 x159x0x3 
x123x165x2 x123x0x2 
x72x165x2 x72x21x3 x72x106x3 x72x170x3 x72x84x3 x72x0x2 x72x0x3 
x54x0x2 
x165x0x2 
x87x84x1 x87x0x1 
x21x84x1 x21x84x3 x21x0x1 x21x0x3 
x71x84x1 x71x0x1 
x106x84x1 x106x84x3 x106x0x1 x106x0x3 
x170x84x3 x170x0x3 
x84x0x1 x84x0x3 

Binaries
y37 y82 y94 y96 y173 y182 y43 y145 y81 y159 y123 y72 y54 y165 y87 y21 y71 y106 y170 y84 
z131z82z2 z131z43z2 z131z123z2 z131z72z2 z131z54z2 z131z165z2 
z50z81z1 z50z159z1 z50z87z1 z50z21z1 z50z71z1 z50z106z1 z50z84z1 
z119z173z1 z119z81z1 z119z159z1 z119z87z1 z119z21z1 z119z71z1 z119z106z1 z119z84z1 
z100z81z1 z100z159z1 z100z87z1 z100z21z1 z100z71z1 z100z106z1 z100z84z1 
z66z37z3 z66z82z3 z66z96z3 z66z182z3 z66z145z3 z66z81z3 z66z159z3 z66z72z3 z66z21z3 z66z106z3 z66z170z3 z66z84z3 
z23z43z2 z23z81z1 z23z159z1 z23z123z2 z23z72z2 z23z54z2 z23z165z2 z23z87z1 z23z21z1 z23z71z1 z23z106z1 z23z84z1 
z94z82z2 z94z43z2 z94z123z2 z94z72z2 z94z54z2 z94z165z2 
z37z159z3 z37z123z2 z37z72z2 z37z72z3 z37z54z2 z37z165z2 z37z21z3 z37z106z3 z37z170z3 z37z84z3 
z93z72z2 z93z72z3 z93z54z2 z93z165z2 z93z21z3 z93z106z3 z93z170z3 z93z84z3 
z27z81z1 z27z159z1 z27z123z2 z27z72z2 z27z54z2 z27z165z2 z27z87z1 z27z21z1 z27z71z1 z27z106z1 z27z84z1 
z117z72z3 z117z87z1 z117z21z1 z117z21z3 z117z71z1 z117z106z1 z117z106z3 z117z170z3 z117z84z1 z117z84z3 
z135z37z3 z135z82z3 z135z96z3 z135z182z3 z135z145z3 z135z81z3 z135z159z3 z135z72z3 z135z21z3 z135z106z3 z135z170z3 z135z84z3 
z32z37z3 z32z82z3 z32z96z3 z32z182z3 z32z145z3 z32z81z3 z32z159z3 z32z72z3 z32z21z3 z32z106z3 z32z170z3 z32z84z3 
z37z159z3 z37z123z2 z37z72z2 z37z72z3 z37z54z2 z37z165z2 z37z21z3 z37z106z3 z37z170z3 z37z84z3 
z82z145z3 z82z81z3 z82z159z3 z82z123z2 z82z72z2 z82z72z3 z82z54z2 z82z165z2 z82z21z3 z82z106z3 z82z170z3 z82z84z3 
z94z123z2 z94z72z2 z94z54z2 z94z165z2 
z96z72z3 z96z21z3 z96z106z3 z96z170z3 z96z84z3 
z173z72z2 z173z54z2 z173z165z2 z173z87z1 z173z21z1 z173z71z1 z173z106z1 z173z84z1 
z182z81z3 z182z159z3 z182z72z3 z182z21z3 z182z106z3 z182z170z3 z182z84z3 
z43z123z2 z43z72z2 z43z54z2 z43z165z2 
z145z72z3 z145z21z3 z145z106z3 z145z170z3 z145z84z3 
z81z72z3 z81z87z1 z81z21z1 z81z21z3 z81z71z1 z81z106z1 z81z106z3 z81z170z3 z81z84z1 z81z84z3 
z159z72z3 z159z87z1 z159z21z1 z159z21z3 z159z71z1 z159z106z1 z159z106z3 z159z170z3 z159z84z1 z159z84z3 
z123z165z2 
z72z165z2 z72z21z3 z72z106z3 z72z170z3 z72z84z3 


z87z84z1 
z21z84z1 z21z84z3 
z71z84z1 
z106z84z1 z106z84z3 
z170z84z3 


End